(set-logic HORN)
(declare-fun assign_35_8_266_abs0 (Int Int Int Int Int) Bool)
(declare-fun assert_34_8_257_abs0 (Int Int Int Int Int) Bool)
(declare-fun assert_33_8_240_abs0 (Int Int Int Int Int) Bool)
(declare-fun while_31_6_269_abs0 (Int Int Int Int Int) Bool)
(declare-fun assign_30_6_200_abs0 (Int Int Int Int Int) Bool)
(declare-fun assign_26_8_191_abs0 (Int Int Int Int Int) Bool)
(declare-fun arrayassign_25_8_182_abs0 (Int Int Int Int Int) Bool)
(declare-fun assert_24_8_165_abs0 (Int Int Int Int Int) Bool)
(declare-fun while_22_6_194_abs0 (Int Int Int Int Int) Bool)
(declare-fun assign_21_6_125_abs0 (Int Int Int Int Int) Bool)
(declare-fun assign_17_8_116_abs0 (Int Int Int Int Int) Bool)
(declare-fun arrayassign_16_8_107_abs0 (Int Int Int Int Int) Bool)
(declare-fun assign_15_8_94_abs0 (Int Int Int Int Int) Bool)
(declare-fun assert_14_8_82_abs0 (Int Int Int Int Int) Bool)
(declare-fun while_12_6_119_abs0 (Int Int Int Int Int) Bool)
(declare-fun assign_11_6_42_abs0 (Int Int Int Int Int) Bool)
(declare-fun assign_8_6_36_abs0 (Int Int Int Int Int) Bool)
(declare-fun end_abs0 (Int Int Int Int Int) Bool)
(declare-fun start_abs0 (Int Int Int Int Int) Bool)
(assert (forall ((a (Array Int Int)) (v Int) (N Int) (i Int) (vabs_f_f Int)) (start_abs0 vabs_f_f (select a vabs_f_f) v N i)))
(assert (forall ((i Int) (N Int) (v Int) (a (Array Int Int)) (vabs_0_f_f Int)) (=> (start_abs0 vabs_0_f_f (select a vabs_0_f_f) v N i) (assign_8_6_36_abs0 vabs_0_f_f (select a vabs_0_f_f) v N i))))
(assert (forall ((rnd Int) (i Int) (N Int) (v Int) (a (Array Int Int)) (vabs_0_f_f Int)) (=> (assign_8_6_36_abs0 vabs_0_f_f (select a vabs_0_f_f) v N i) (assign_11_6_42_abs0 vabs_0_f_f (select a vabs_0_f_f) v rnd i))))
(assert (forall ((i Int) (N Int) (v Int) (a (Array Int Int)) (vabs_0_f_f Int)) (=> (assign_11_6_42_abs0 vabs_0_f_f (select a vabs_0_f_f) v N i) (while_12_6_119_abs0 vabs_0_f_f (select a vabs_0_f_f) v N 0))))
(assert (forall ((a (Array Int Int)) (v Int) (N Int) (i Int) (vabs_0_f_f Int)) (=> (and (while_12_6_119_abs0 vabs_0_f_f (select a vabs_0_f_f) v N i) (< i N)) (assert_14_8_82_abs0 vabs_0_f_f (select a vabs_0_f_f) v N i))))
(assert (forall ((a (Array Int Int)) (v Int) (N Int) (i Int) (vabs_0_f_f Int)) (=> (and (while_12_6_119_abs0 vabs_0_f_f (select a vabs_0_f_f) v N i) (not (< i N))) (assign_21_6_125_abs0 vabs_0_f_f (select a vabs_0_f_f) v N i))))
(assert (forall ((k Int) (i Int) (N Int) (v Int) (a (Array Int Int))) (=> (and (assert_14_8_82_abs0 k (select a k) v N i) (<= 0 k) (< k i)) (= (mod (select a k) 2) 0))))
(assert (forall ((i Int) (N Int) (v Int) (a (Array Int Int)) (vabs_0_f_f Int)) (=> (assert_14_8_82_abs0 vabs_0_f_f (select a vabs_0_f_f) v N i) (assign_15_8_94_abs0 vabs_0_f_f (select a vabs_0_f_f) v N i))))
(assert (forall ((rnd Int) (i Int) (N Int) (v Int) (a (Array Int Int)) (vabs_0_f_f Int)) (=> (assign_15_8_94_abs0 vabs_0_f_f (select a vabs_0_f_f) v N i) (arrayassign_16_8_107_abs0 vabs_0_f_f (select a vabs_0_f_f) rnd N i))))
(assert (forall ((i Int) (N Int) (v Int) (a (Array Int Int)) (vabs_0_f_f Int)) (=> (arrayassign_16_8_107_abs0 vabs_0_f_f (select a vabs_0_f_f) v N i) (assign_17_8_116_abs0 vabs_0_f_f (select (store a i (* v 2)) vabs_0_f_f) v N i))))
(assert (forall ((i Int) (N Int) (v Int) (a (Array Int Int)) (vabs_0_f_f Int)) (=> (assign_17_8_116_abs0 vabs_0_f_f (select a vabs_0_f_f) v N i) (while_12_6_119_abs0 vabs_0_f_f (select a vabs_0_f_f) v N (+ i 1)))))
(assert (forall ((i Int) (N Int) (v Int) (a (Array Int Int)) (vabs_0_f_f Int)) (=> (assign_21_6_125_abs0 vabs_0_f_f (select a vabs_0_f_f) v N i) (while_22_6_194_abs0 vabs_0_f_f (select a vabs_0_f_f) v N 0))))
(assert (forall ((a (Array Int Int)) (v Int) (N Int) (i Int) (vabs_0_f_f Int)) (=> (and (while_22_6_194_abs0 vabs_0_f_f (select a vabs_0_f_f) v N i) (< i N)) (assert_24_8_165_abs0 vabs_0_f_f (select a vabs_0_f_f) v N i))))
(assert (forall ((a (Array Int Int)) (v Int) (N Int) (i Int) (vabs_0_f_f Int)) (=> (and (while_22_6_194_abs0 vabs_0_f_f (select a vabs_0_f_f) v N i) (not (< i N))) (assign_30_6_200_abs0 vabs_0_f_f (select a vabs_0_f_f) v N i))))
(assert (forall ((k Int) (i Int) (N Int) (v Int) (a (Array Int Int))) (=> (and (assert_24_8_165_abs0 k (select a k) v N i) (<= 0 k) (< k i)) (= (mod (select a k) 2) 1))))
(assert (forall ((i Int) (N Int) (v Int) (a (Array Int Int)) (vabs_0_f_f Int)) (=> (assert_24_8_165_abs0 vabs_0_f_f (select a vabs_0_f_f) v N i) (arrayassign_25_8_182_abs0 vabs_0_f_f (select a vabs_0_f_f) v N i))))
(assert (forall ((i Int) (N Int) (v Int) (a (Array Int Int)) (vabs_0_f_f Int)) (=> (and (arrayassign_25_8_182_abs0 vabs_0_f_f (select a vabs_0_f_f) v N i) (arrayassign_25_8_182_abs0 i (select a i) v N i)) (assign_26_8_191_abs0 vabs_0_f_f (select (store a i (+ (select a i) 1)) vabs_0_f_f) v N i))))
(assert (forall ((i Int) (N Int) (v Int) (a (Array Int Int)) (vabs_0_f_f Int)) (=> (assign_26_8_191_abs0 vabs_0_f_f (select a vabs_0_f_f) v N i) (while_22_6_194_abs0 vabs_0_f_f (select a vabs_0_f_f) v N (+ i 1)))))
(assert (forall ((i Int) (N Int) (v Int) (a (Array Int Int)) (vabs_0_f_f Int)) (=> (assign_30_6_200_abs0 vabs_0_f_f (select a vabs_0_f_f) v N i) (while_31_6_269_abs0 vabs_0_f_f (select a vabs_0_f_f) v N 0))))
(assert (forall ((a (Array Int Int)) (v Int) (N Int) (i Int) (vabs_0_f_f Int)) (=> (and (while_31_6_269_abs0 vabs_0_f_f (select a vabs_0_f_f) v N i) (< i N)) (assert_33_8_240_abs0 vabs_0_f_f (select a vabs_0_f_f) v N i))))
(assert (forall ((a (Array Int Int)) (v Int) (N Int) (i Int) (vabs_0_f_f Int)) (=> (and (while_31_6_269_abs0 vabs_0_f_f (select a vabs_0_f_f) v N i) (not (< i N))) (end_abs0 vabs_0_f_f (select a vabs_0_f_f) v N i))))
(assert (forall ((k Int) (i Int) (N Int) (v Int) (a (Array Int Int))) (=> (and (assert_33_8_240_abs0 k (select a k) v N i) (<= 0 k) (< k N)) (= (mod (select a k) 2) 1))))
(assert (forall ((i Int) (N Int) (v Int) (a (Array Int Int)) (vabs_0_f_f Int)) (=> (assert_33_8_240_abs0 vabs_0_f_f (select a vabs_0_f_f) v N i) (assert_34_8_257_abs0 vabs_0_f_f (select a vabs_0_f_f) v N i))))
(assert (forall ((i Int) (N Int) (v Int) (a (Array Int Int))) (=> (assert_34_8_257_abs0 i (select a i) v N i) (= (mod (select a i) 2) 1))))
(assert (forall ((i Int) (N Int) (v Int) (a (Array Int Int)) (vabs_0_f_f Int)) (=> (assert_34_8_257_abs0 vabs_0_f_f (select a vabs_0_f_f) v N i) (assign_35_8_266_abs0 vabs_0_f_f (select a vabs_0_f_f) v N i))))
(assert (forall ((i Int) (N Int) (v Int) (a (Array Int Int)) (vabs_0_f_f Int)) (=> (assign_35_8_266_abs0 vabs_0_f_f (select a vabs_0_f_f) v N i) (while_31_6_269_abs0 vabs_0_f_f (select a vabs_0_f_f) v N (+ i 1)))))
(check-sat)